
Gurobi 11.0.3 (linux64) logging started Wed Nov 12 20:17:56 2025

Set parameter LogFile to value "./log/train/CA_500_600_threads_0/CA_64.lp.log"
Set parameter TimeLimit to value 3600
Gurobi Optimizer version 11.0.3 build v11.0.3rc0 (linux64 - "Ubuntu 22.04.5 LTS")

CPU model: AMD Ryzen 9 9900X 12-Core Processor, instruction set [SSE2|AVX|AVX2|AVX512]
Thread count: 12 physical cores, 24 logical processors, using up to 24 threads

Optimize a model with 609 rows, 600 columns and 2907 nonzeros
Model fingerprint: 0x7e83277c
Variable types: 0 continuous, 600 integer (600 binary)
Coefficient statistics:
  Matrix range     [1e+00, 1e+00]
  Objective range  [1e+00, 9e+02]
  Bounds range     [1e+00, 1e+00]
  RHS range        [1e+00, 1e+00]
Found heuristic solution: objective 18028.673256
Presolve removed 46 rows and 63 columns
Presolve time: 0.00s
Presolved: 563 rows, 537 columns, 2835 nonzeros
Found heuristic solution: objective 22655.280629
Variable types: 0 continuous, 537 integer (537 binary)
Found heuristic solution: objective 23335.431800

Root relaxation: objective 3.054884e+04, 1467 iterations, 0.04 seconds (0.09 work units)

    Nodes    |    Current Node    |     Objective Bounds      |     Work
 Expl Unexpl |  Obj  Depth IntInf | Incumbent    BestBd   Gap | It/Node Time

     0     0 30548.8428    0  331 23335.4318 30548.8428  30.9%     -    0s
H    0     0                    26281.746988 30548.8428  16.2%     -    0s
H    0     0                    26282.387572 30548.8428  16.2%     -    0s
H    0     0                    26338.888217 30548.8428  16.0%     -    0s
H    0     0                    26650.210625 30546.2028  14.6%     -    0s
     0     0 30443.1394    0  329 26650.2106 30443.1394  14.2%     -    0s
     0     0 30443.1394    0  332 26650.2106 30443.1394  14.2%     -    0s
     0     0 30443.1394    0  332 26650.2106 30443.1394  14.2%     -    0s
     0     0 30275.0277    0  326 26650.2106 30275.0277  13.6%     -    0s
     0     0 30208.5745    0  330 26650.2106 30208.5745  13.4%     -    0s
     0     0 30208.5745    0  330 26650.2106 30208.5745  13.4%     -    0s
     0     2 30208.5745    0  330 26650.2106 30208.5745  13.4%     -    0s
H   33    40                    26751.657849 30208.5745  12.9%   265    0s
H   73    85                    26930.668865 30208.5745  12.2%   237    0s
H   86   106                    27289.259621 30208.5745  10.7%   229    0s
H   92   106                    27451.834632 30208.5745  10.0%   225    0s
H  126   141                    27544.111656 30208.5745  9.67%   210    0s
H  138   141                    27650.263737 30208.5745  9.25%   205    0s
H  148   149                    27667.228370 30208.5745  9.19%   199    0s
H  154   149                    27672.054327 30208.5745  9.17%   197    0s
H  195   172                    27837.729544 30208.5745  8.52%   179    0s
H  201   172                    27861.705013 30208.5745  8.42%   175    0s
H  213   172                    27968.847326 30208.5745  8.01%   174    0s
H  322   235                    27993.719340 30208.5745  7.91%   161    0s
H  328   235                    28029.834443 30208.5745  7.77%   161    0s
H  535   330                    28118.433324 30034.8403  6.82%   147    0s
  9797  2751 28393.3621   21  237 28118.4333 29007.8359  3.16%   120    5s
*12610  3303              26    28138.258206 28885.5304  2.66%   115    5s
*21343  3821              24    28155.943916 28648.1470  1.75%   106    6s

Explored 34005 nodes (3292002 simplex iterations) in 8.37 seconds (22.58 work units)
Thread count was 24 (of 24 available processors)

Solution count 10: 28155.9 28138.3 28118.4 ... 27667.2

Optimal solution found (tolerance 1.00e-04)
Best objective 2.815594391592e+04, best bound 2.815594391592e+04, gap 0.0000%

User-callback calls 69579, time in user-callback 0.04 sec
